(set-logic BV)
(set-info :status unknown)
(assert
 (forall ((ex_1 (_ BitVec 1)) (ex_2 (_ BitVec 1)) (ex_3 (_ BitVec 1)) (ex_4 (_ BitVec 1)) (ex_5 (_ BitVec 1)) (ex_6 (_ BitVec 1)) (ex_7 (_ BitVec 1)) (ex_8 (_ BitVec 1)) (ex_9 (_ BitVec 1)) (ex_10 (_ BitVec 1)) (ex_11 (_ BitVec 1)) (ex_12 (_ BitVec 1)) (ex_13 (_ BitVec 1)) (ex_14 (_ BitVec 1)) (ex_15 (_ BitVec 1)) (ex_16 (_ BitVec 1)) (ex_17 (_ BitVec 1)) (ex_18 (_ BitVec 1)) (ex_19 (_ BitVec 1)) (ex_20 (_ BitVec 1)) (ex_21 (_ BitVec 1)) (ex_22 (_ BitVec 1)) (ex_23 (_ BitVec 1)) (ex_24 (_ BitVec 1)) (ex_25 (_ BitVec 1)) )(exists ((exaux_1_25 (_ BitVec 5)) (cxaux_1_25 (_ BitVec 5)) (s_13 (_ BitVec 1)) (cx_1 (_ BitVec 1)) (cx_2 (_ BitVec 1)) (cx_6 (_ BitVec 1)) (cx_7 (_ BitVec 1)) (s_14 (_ BitVec 1)) (cx_8 (_ BitVec 1)) (cx_12 (_ BitVec 1)) (cx_13 (_ BitVec 1)) (s_15 (_ BitVec 1)) (cx_3 (_ BitVec 1)) (cx_4 (_ BitVec 1)) (cx_9 (_ BitVec 1)) (s_16 (_ BitVec 1)) (cx_10 (_ BitVec 1)) (cx_14 (_ BitVec 1)) (cx_15 (_ BitVec 1)) (s_17 (_ BitVec 1)) (s_18 (_ BitVec 1)) (cx_21 (_ BitVec 1)) (cx_22 (_ BitVec 1)) (s_19 (_ BitVec 1)) (cx_11 (_ BitVec 1)) (cx_16 (_ BitVec 1)) (cx_17 (_ BitVec 1)) (s_20 (_ BitVec 1)) (cx_18 (_ BitVec 1)) (cx_23 (_ BitVec 1)) (s_21 (_ BitVec 1)) (cx_19 (_ BitVec 1)) (s_22 (_ BitVec 1)) (cx_20 (_ BitVec 1)) (cx_24 (_ BitVec 1)) (cx_25 (_ BitVec 1)) (s_23 (_ BitVec 1)) (cx_5 (_ BitVec 1)) (s_24 (_ BitVec 1)) )(let (($x302 (bvule cxaux_1_25 exaux_1_25)))
 (let (($x303 (and $x302 (bvule cxaux_1_25 ((_ zero_extend 3) (_ bv2 2))))))
 (let (($x367 (= s_24 (bvadd cx_23 cx_24))))
 (let (($x364 (= s_23 (bvadd cx_4 cx_5))))
 (let (($x359 (and (= s_22 (bvadd cx_19 (bvadd cx_20 (bvadd cx_24 cx_25)))) (and $x364 (and $x367 $x303)))))
 (let (($x537 (and (= s_20 (bvadd cx_17 (bvadd cx_18 (bvadd cx_22 cx_23)))) (and (= s_21 (bvadd cx_13 (bvadd cx_14 (bvadd cx_18 cx_19)))) $x359))))
 (let (($x544 (= s_18 (bvadd cx_21 cx_22))))
 (let (($x545 (and $x544 (and (= s_19 (bvadd cx_11 (bvadd cx_12 (bvadd cx_16 cx_17)))) $x537))))
 (let (($x547 (= s_17 (bvadd cx_2 cx_3))))
 (let (($x552 (and (= s_16 (bvadd cx_9 (bvadd cx_10 (bvadd cx_14 cx_15)))) (and $x547 $x545))))
 (let (($x561 (and (= s_14 (bvadd cx_7 (bvadd cx_8 (bvadd cx_12 cx_13)))) (and (= s_15 (bvadd cx_3 (bvadd cx_4 (bvadd cx_8 cx_9)))) $x552))))
 (let (($x354 (= s_13 (bvadd cx_1 (bvadd cx_2 (bvadd cx_6 cx_7))))))
 (let ((?x369 (bvadd ex_23 ex_24)))
 (let (($x615 (= s_24 ?x369)))
 (let ((?x616 (bvadd ex_4 ex_5)))
 (let (($x617 (= s_23 ?x616)))
 (let ((?x618 (bvadd ex_19 ex_20 ex_24 ex_25)))
 (let (($x619 (= s_22 ?x618)))
 (let ((?x620 (bvadd ex_13 ex_14 ex_18 ex_19)))
 (let (($x621 (= s_21 ?x620)))
 (let (($x623 (= s_20 (bvadd ex_17 ex_18 ex_22 ex_23))))
 (let ((?x624 (bvadd ex_11 ex_12 ex_16 ex_17)))
 (let (($x625 (= s_19 ?x624)))
 (let (($x627 (= s_18 (bvadd ex_21 ex_22))))
 (let (($x629 (= s_17 (bvadd ex_2 ex_3))))
 (let ((?x630 (bvadd ex_9 ex_10 ex_14 ex_15)))
 (let (($x631 (= s_16 ?x630)))
 (let ((?x632 (bvadd ex_3 ex_4 ex_8 ex_9)))
 (let (($x633 (= s_15 ?x632)))
 (let (($x635 (= s_14 (bvadd ex_7 ex_8 ex_12 ex_13))))
 (let (($x637 (= s_13 (bvadd ex_1 ex_2 ex_6 ex_7))))
 (let (($x638 (and $x637 $x635 $x633 $x631 $x629 $x627 $x625 $x623 $x621 $x619 $x617 $x615 (= ex_1 (bvadd cx_1 cx_6 cx_11 cx_16 cx_21 ex_6 ex_11 ex_16 ex_21)))))
 (let (($x373 (not (bvule exaux_1_25 ((_ zero_extend 3) (_ bv2 2))))))
 (let ((?x508 (bvadd (bvadd (bvadd (_ bv0 5) ((_ zero_extend 4) ex_1)) ((_ zero_extend 4) ex_2)) ((_ zero_extend 4) ex_3))))
 (let ((?x511 (bvadd (bvadd (bvadd ?x508 ((_ zero_extend 4) ex_4)) ((_ zero_extend 4) ex_5)) ((_ zero_extend 4) ex_6))))
 (let ((?x514 (bvadd (bvadd (bvadd ?x511 ((_ zero_extend 4) ex_7)) ((_ zero_extend 4) ex_8)) ((_ zero_extend 4) ex_9))))
 (let ((?x517 (bvadd (bvadd (bvadd ?x514 ((_ zero_extend 4) ex_10)) ((_ zero_extend 4) ex_11)) ((_ zero_extend 4) ex_12))))
 (let ((?x520 (bvadd (bvadd (bvadd ?x517 ((_ zero_extend 4) ex_13)) ((_ zero_extend 4) ex_14)) ((_ zero_extend 4) ex_15))))
 (let ((?x523 (bvadd (bvadd (bvadd ?x520 ((_ zero_extend 4) ex_16)) ((_ zero_extend 4) ex_17)) ((_ zero_extend 4) ex_18))))
 (let ((?x526 (bvadd (bvadd (bvadd ?x523 ((_ zero_extend 4) ex_19)) ((_ zero_extend 4) ex_20)) ((_ zero_extend 4) ex_21))))
 (let ((?x529 (bvadd (bvadd (bvadd ?x526 ((_ zero_extend 4) ex_22)) ((_ zero_extend 4) ex_23)) ((_ zero_extend 4) ex_24))))
 (let (($x531 (= (bvadd ?x529 ((_ zero_extend 4) ex_25)) exaux_1_25)))
 (let ((?x377 ((_ zero_extend 4) cx_25)))
 (let ((?x378 ((_ zero_extend 4) cx_24)))
 (let ((?x379 ((_ zero_extend 4) cx_23)))
 (let ((?x386 ((_ zero_extend 4) cx_22)))
 (let ((?x382 ((_ zero_extend 4) cx_19)))
 (let ((?x380 ((_ zero_extend 4) cx_18)))
 (let ((?x383 ((_ zero_extend 4) cx_16)))
 (let ((?x387 ((_ zero_extend 4) cx_15)))
 (let ((?x388 ((_ zero_extend 4) cx_14)))
 (let ((?x389 ((_ zero_extend 4) cx_13)))
 (let ((?x390 ((_ zero_extend 4) cx_12)))
 (let ((?x384 ((_ zero_extend 4) cx_11)))
 (let ((?x392 ((_ zero_extend 4) cx_9)))
 (let ((?x395 ((_ zero_extend 4) cx_8)))
 (let ((?x393 ((_ zero_extend 4) cx_7)))
 (let ((?x394 ((_ zero_extend 4) cx_6)))
 (let ((?x396 ((_ zero_extend 4) cx_4)))
 (let ((?x397 ((_ zero_extend 4) cx_3)))
 (let ((?x589 (bvadd (bvadd (bvadd (bvadd (_ bv0 5) ((_ zero_extend 4) cx_1)) ((_ zero_extend 4) cx_2)) ?x397) ?x396)))
 (let ((?x594 (bvadd (bvadd (bvadd (bvadd (bvadd ?x589 ((_ zero_extend 4) cx_5)) ?x394) ?x393) ?x395) ?x392)))
 (let ((?x599 (bvadd (bvadd (bvadd (bvadd (bvadd ?x594 ((_ zero_extend 4) cx_10)) ?x384) ?x390) ?x389) ?x388)))
 (let ((?x604 (bvadd (bvadd (bvadd (bvadd (bvadd ?x599 ?x387) ?x383) ((_ zero_extend 4) cx_17)) ?x380) ?x382)))
 (let ((?x608 (bvadd (bvadd (bvadd (bvadd ?x604 ((_ zero_extend 4) cx_20)) ((_ zero_extend 4) cx_21)) ?x386) ?x379)))
 (and (and $x531 (= (bvadd (bvadd ?x608 ?x378) ?x377) cxaux_1_25) $x531) (or $x373 (and $x638 (and $x354 $x561))))))))))))))))))))))))))))))))))))))))))))))))))))))))))))))))))))))
 )
 )
(check-sat)